(set-info :smt-lib-version 2.6)
(set-logic QF_LRA)
(set-info :source |
SAL benchmark suite.  Created at SRI by Bruno Dutertre, John Rushby, Maria
Sorea, and Leonardo de Moura.  Contact demoura@csl.sri.com for more
information.

This benchmark was automatically translated into SMT-LIB format from
CVC format using CVC Lite
|)
(set-info :category "industrial")
(set-info :status unsat)
(declare-fun x_0 () Bool)
(declare-fun x_1 () Bool)
(declare-fun x_2 () Bool)
(declare-fun x_3 () Bool)
(declare-fun x_4 () Bool)
(declare-fun x_5 () Bool)
(declare-fun x_6 () Bool)
(declare-fun x_7 () Bool)
(declare-fun x_8 () Real)
(declare-fun x_9 () Real)
(declare-fun x_10 () Bool)
(declare-fun x_11 () Bool)
(declare-fun x_12 () Bool)
(declare-fun x_13 () Bool)
(declare-fun x_14 () Real)
(declare-fun x_15 () Bool)
(declare-fun x_16 () Bool)
(declare-fun x_17 () Bool)
(declare-fun x_18 () Bool)
(declare-fun x_19 () Bool)
(declare-fun x_20 () Real)
(declare-fun x_21 () Real)
(declare-fun x_22 () Real)
(declare-fun x_23 () Real)
(declare-fun x_24 () Real)
(declare-fun x_25 () Bool)
(declare-fun x_26 () Bool)
(declare-fun x_27 () Bool)
(declare-fun x_28 () Bool)
(declare-fun x_29 () Real)
(declare-fun x_30 () Bool)
(declare-fun x_31 () Bool)
(declare-fun x_32 () Bool)
(declare-fun x_33 () Bool)
(declare-fun x_34 () Real)
(declare-fun x_35 () Real)
(declare-fun x_36 () Real)
(declare-fun x_37 () Real)
(declare-fun x_38 () Real)
(declare-fun x_39 () Bool)
(declare-fun x_40 () Bool)
(declare-fun x_41 () Bool)
(declare-fun x_42 () Bool)
(declare-fun x_43 () Real)
(declare-fun x_44 () Bool)
(declare-fun x_45 () Bool)
(declare-fun x_46 () Bool)
(declare-fun x_47 () Bool)
(declare-fun x_48 () Real)
(declare-fun x_49 () Real)
(declare-fun x_50 () Real)
(declare-fun x_51 () Real)
(declare-fun x_52 () Real)
(declare-fun x_53 () Bool)
(declare-fun x_54 () Bool)
(declare-fun x_55 () Bool)
(declare-fun x_56 () Bool)
(declare-fun x_57 () Real)
(declare-fun x_58 () Bool)
(declare-fun x_59 () Bool)
(declare-fun x_60 () Bool)
(declare-fun x_61 () Bool)
(declare-fun x_62 () Real)
(declare-fun x_63 () Real)
(declare-fun x_64 () Real)
(declare-fun x_65 () Real)
(declare-fun x_66 () Real)
(declare-fun x_67 () Bool)
(declare-fun x_68 () Bool)
(declare-fun x_69 () Bool)
(declare-fun x_70 () Bool)
(declare-fun x_71 () Real)
(declare-fun x_72 () Bool)
(declare-fun x_73 () Bool)
(declare-fun x_74 () Bool)
(declare-fun x_75 () Bool)
(declare-fun x_76 () Real)
(declare-fun x_77 () Real)
(declare-fun x_78 () Real)
(declare-fun x_79 () Real)
(declare-fun x_80 () Real)
(declare-fun x_81 () Bool)
(declare-fun x_82 () Bool)
(declare-fun x_83 () Bool)
(declare-fun x_84 () Bool)
(declare-fun x_85 () Real)
(declare-fun x_86 () Bool)
(declare-fun x_87 () Bool)
(declare-fun x_88 () Bool)
(declare-fun x_89 () Bool)
(declare-fun x_90 () Real)
(declare-fun x_91 () Real)
(declare-fun x_92 () Real)
(declare-fun x_93 () Real)
(declare-fun x_94 () Real)
(declare-fun x_95 () Bool)
(declare-fun x_96 () Bool)
(declare-fun x_97 () Bool)
(declare-fun x_98 () Bool)
(declare-fun x_99 () Real)
(declare-fun x_100 () Bool)
(declare-fun x_101 () Bool)
(declare-fun x_102 () Bool)
(declare-fun x_103 () Bool)
(declare-fun x_104 () Real)
(declare-fun x_105 () Real)
(declare-fun x_106 () Real)
(declare-fun x_107 () Real)
(declare-fun x_108 () Real)
(declare-fun x_109 () Bool)
(declare-fun x_110 () Bool)
(declare-fun x_111 () Bool)
(declare-fun x_112 () Bool)
(declare-fun x_113 () Real)
(declare-fun x_114 () Bool)
(declare-fun x_115 () Bool)
(declare-fun x_116 () Bool)
(declare-fun x_117 () Bool)
(declare-fun x_118 () Real)
(declare-fun x_119 () Real)
(declare-fun x_120 () Real)
(declare-fun x_121 () Real)
(declare-fun x_122 () Real)
(declare-fun x_123 () Bool)
(declare-fun x_124 () Bool)
(declare-fun x_125 () Bool)
(declare-fun x_126 () Bool)
(declare-fun x_127 () Real)
(declare-fun x_128 () Bool)
(declare-fun x_129 () Bool)
(declare-fun x_130 () Bool)
(declare-fun x_131 () Bool)
(declare-fun x_132 () Real)
(declare-fun x_133 () Real)
(declare-fun x_134 () Real)
(assert (let ((?v_28 (+ x_108 x_121)) (?v_5 (+ x_113 x_121)) (?v_31 (= x_122 0)) (?v_3 (= x_123 x_109)) (?v_29 (and (= x_124 x_110) (= x_125 x_111))) (?v_14 (or x_116 x_117)) (?v_12 (not x_116))) (let ((?v_13 (and ?v_12 x_117)) (?v_36 (not x_110)) (?v_30 (not x_111))) (let ((?v_25 (and ?v_36 ?v_30)) (?v_27 (= x_126 x_112)) (?v_8 (= x_127 0)) (?v_7 (not x_117))) (let ((?v_0 (and ?v_12 ?v_7)) (?v_23 (or x_116 ?v_7)) (?v_4 (= x_118 1))) (let ((?v_21 (not ?v_4)) (?v_38 (or x_110 x_111)) (?v_42 (or ?v_36 x_111)) (?v_1 (= x_118 0))) (let ((?v_16 (not ?v_1)) (?v_20 (or ?v_12 x_117)) (?v_41 (< x_108 1)) (?v_10 (= x_127 x_113)) (?v_9 (and x_116 ?v_7)) (?v_47 (or x_110 ?v_30)) (?v_32 (and x_110 ?v_30)) (?v_26 (= x_128 x_114)) (?v_2 (= x_129 x_115)) (?v_33 (= x_122 x_108)) (?v_46 (< x_108 6)) (?v_6 (and (= x_130 x_116) (= x_131 x_117))) (?v_37 (and ?v_36 x_111)) (?v_19 (< x_113 2)) (?v_34 (<= ?v_28 1)) (?v_35 (= x_122 ?v_28)) (?v_11 (= x_127 ?v_5)) (?v_24 (<= ?v_5 3)) (?v_48 (<= ?v_28 6)) (?v_15 (<= ?v_5 1)) (?v_22 (<= ?v_5 2))) (let ((?v_43 (not ?v_34)) (?v_77 (+ x_94 x_107)) (?v_54 (+ x_99 x_107)) (?v_80 (= x_108 0)) (?v_52 (= x_109 x_95)) (?v_78 (and (= x_110 x_96) (= x_111 x_97))) (?v_63 (or x_102 x_103)) (?v_61 (not x_102))) (let ((?v_62 (and ?v_61 x_103)) (?v_85 (not x_96)) (?v_79 (not x_97))) (let ((?v_74 (and ?v_85 ?v_79)) (?v_76 (= x_112 x_98)) (?v_57 (= x_113 0)) (?v_56 (not x_103))) (let ((?v_49 (and ?v_61 ?v_56)) (?v_72 (or x_102 ?v_56)) (?v_53 (= x_104 1))) (let ((?v_70 (not ?v_53)) (?v_87 (or x_96 x_97)) (?v_91 (or ?v_85 x_97)) (?v_50 (= x_104 0))) (let ((?v_65 (not ?v_50)) (?v_69 (or ?v_61 x_103)) (?v_90 (< x_94 1)) (?v_59 (= x_113 x_99)) (?v_58 (and x_102 ?v_56)) (?v_96 (or x_96 ?v_79)) (?v_81 (and x_96 ?v_79)) (?v_75 (= x_114 x_100)) (?v_51 (= x_115 x_101)) (?v_82 (= x_108 x_94)) (?v_95 (< x_94 6)) (?v_55 (and (= x_116 x_102) (= x_117 x_103))) (?v_86 (and ?v_85 x_97)) (?v_68 (< x_99 2)) (?v_83 (<= ?v_77 1)) (?v_84 (= x_108 ?v_77)) (?v_60 (= x_113 ?v_54)) (?v_73 (<= ?v_54 3)) (?v_97 (<= ?v_77 6)) (?v_64 (<= ?v_54 1)) (?v_71 (<= ?v_54 2))) (let ((?v_92 (not ?v_83)) (?v_126 (+ x_80 x_93)) (?v_103 (+ x_85 x_93)) (?v_129 (= x_94 0)) (?v_101 (= x_95 x_81)) (?v_127 (and (= x_96 x_82) (= x_97 x_83))) (?v_112 (or x_88 x_89)) (?v_110 (not x_88))) (let ((?v_111 (and ?v_110 x_89)) (?v_134 (not x_82)) (?v_128 (not x_83))) (let ((?v_123 (and ?v_134 ?v_128)) (?v_125 (= x_98 x_84)) (?v_106 (= x_99 0)) (?v_105 (not x_89))) (let ((?v_98 (and ?v_110 ?v_105)) (?v_121 (or x_88 ?v_105)) (?v_102 (= x_90 1))) (let ((?v_119 (not ?v_102)) (?v_136 (or x_82 x_83)) (?v_140 (or ?v_134 x_83)) (?v_99 (= x_90 0))) (let ((?v_114 (not ?v_99)) (?v_118 (or ?v_110 x_89)) (?v_139 (< x_80 1)) (?v_108 (= x_99 x_85)) (?v_107 (and x_88 ?v_105)) (?v_145 (or x_82 ?v_128)) (?v_130 (and x_82 ?v_128)) (?v_124 (= x_100 x_86)) (?v_100 (= x_101 x_87)) (?v_131 (= x_94 x_80)) (?v_144 (< x_80 6)) (?v_104 (and (= x_102 x_88) (= x_103 x_89))) (?v_135 (and ?v_134 x_83)) (?v_117 (< x_85 2)) (?v_132 (<= ?v_126 1)) (?v_133 (= x_94 ?v_126)) (?v_109 (= x_99 ?v_103)) (?v_122 (<= ?v_103 3)) (?v_146 (<= ?v_126 6)) (?v_113 (<= ?v_103 1)) (?v_120 (<= ?v_103 2))) (let ((?v_141 (not ?v_132)) (?v_175 (+ x_66 x_79)) (?v_152 (+ x_71 x_79)) (?v_178 (= x_80 0)) (?v_150 (= x_81 x_67)) (?v_176 (and (= x_82 x_68) (= x_83 x_69))) (?v_161 (or x_74 x_75)) (?v_159 (not x_74))) (let ((?v_160 (and ?v_159 x_75)) (?v_183 (not x_68)) (?v_177 (not x_69))) (let ((?v_172 (and ?v_183 ?v_177)) (?v_174 (= x_84 x_70)) (?v_155 (= x_85 0)) (?v_154 (not x_75))) (let ((?v_147 (and ?v_159 ?v_154)) (?v_170 (or x_74 ?v_154)) (?v_151 (= x_76 1))) (let ((?v_168 (not ?v_151)) (?v_185 (or x_68 x_69)) (?v_189 (or ?v_183 x_69)) (?v_148 (= x_76 0))) (let ((?v_163 (not ?v_148)) (?v_167 (or ?v_159 x_75)) (?v_188 (< x_66 1)) (?v_157 (= x_85 x_71)) (?v_156 (and x_74 ?v_154)) (?v_194 (or x_68 ?v_177)) (?v_179 (and x_68 ?v_177)) (?v_173 (= x_86 x_72)) (?v_149 (= x_87 x_73)) (?v_180 (= x_80 x_66)) (?v_193 (< x_66 6)) (?v_153 (and (= x_88 x_74) (= x_89 x_75))) (?v_184 (and ?v_183 x_69)) (?v_166 (< x_71 2)) (?v_181 (<= ?v_175 1)) (?v_182 (= x_80 ?v_175)) (?v_158 (= x_85 ?v_152)) (?v_171 (<= ?v_152 3)) (?v_195 (<= ?v_175 6)) (?v_162 (<= ?v_152 1)) (?v_169 (<= ?v_152 2))) (let ((?v_190 (not ?v_181)) (?v_224 (+ x_52 x_65)) (?v_201 (+ x_57 x_65)) (?v_227 (= x_66 0)) (?v_199 (= x_67 x_53)) (?v_225 (and (= x_68 x_54) (= x_69 x_55))) (?v_210 (or x_60 x_61)) (?v_208 (not x_60))) (let ((?v_209 (and ?v_208 x_61)) (?v_232 (not x_54)) (?v_226 (not x_55))) (let ((?v_221 (and ?v_232 ?v_226)) (?v_223 (= x_70 x_56)) (?v_204 (= x_71 0)) (?v_203 (not x_61))) (let ((?v_196 (and ?v_208 ?v_203)) (?v_219 (or x_60 ?v_203)) (?v_200 (= x_62 1))) (let ((?v_217 (not ?v_200)) (?v_234 (or x_54 x_55)) (?v_238 (or ?v_232 x_55)) (?v_197 (= x_62 0))) (let ((?v_212 (not ?v_197)) (?v_216 (or ?v_208 x_61)) (?v_237 (< x_52 1)) (?v_206 (= x_71 x_57)) (?v_205 (and x_60 ?v_203)) (?v_243 (or x_54 ?v_226)) (?v_228 (and x_54 ?v_226)) (?v_222 (= x_72 x_58)) (?v_198 (= x_73 x_59)) (?v_229 (= x_66 x_52)) (?v_242 (< x_52 6)) (?v_202 (and (= x_74 x_60) (= x_75 x_61))) (?v_233 (and ?v_232 x_55)) (?v_215 (< x_57 2)) (?v_230 (<= ?v_224 1)) (?v_231 (= x_66 ?v_224)) (?v_207 (= x_71 ?v_201)) (?v_220 (<= ?v_201 3)) (?v_244 (<= ?v_224 6)) (?v_211 (<= ?v_201 1)) (?v_218 (<= ?v_201 2))) (let ((?v_239 (not ?v_230)) (?v_273 (+ x_38 x_51)) (?v_250 (+ x_43 x_51)) (?v_276 (= x_52 0)) (?v_248 (= x_53 x_39)) (?v_274 (and (= x_54 x_40) (= x_55 x_41))) (?v_259 (or x_46 x_47)) (?v_257 (not x_46))) (let ((?v_258 (and ?v_257 x_47)) (?v_281 (not x_40)) (?v_275 (not x_41))) (let ((?v_270 (and ?v_281 ?v_275)) (?v_272 (= x_56 x_42)) (?v_253 (= x_57 0)) (?v_252 (not x_47))) (let ((?v_245 (and ?v_257 ?v_252)) (?v_268 (or x_46 ?v_252)) (?v_249 (= x_48 1))) (let ((?v_266 (not ?v_249)) (?v_283 (or x_40 x_41)) (?v_287 (or ?v_281 x_41)) (?v_246 (= x_48 0))) (let ((?v_261 (not ?v_246)) (?v_265 (or ?v_257 x_47)) (?v_286 (< x_38 1)) (?v_255 (= x_57 x_43)) (?v_254 (and x_46 ?v_252)) (?v_292 (or x_40 ?v_275)) (?v_277 (and x_40 ?v_275)) (?v_271 (= x_58 x_44)) (?v_247 (= x_59 x_45)) (?v_278 (= x_52 x_38)) (?v_291 (< x_38 6)) (?v_251 (and (= x_60 x_46) (= x_61 x_47))) (?v_282 (and ?v_281 x_41)) (?v_264 (< x_43 2)) (?v_279 (<= ?v_273 1)) (?v_280 (= x_52 ?v_273)) (?v_256 (= x_57 ?v_250)) (?v_269 (<= ?v_250 3)) (?v_293 (<= ?v_273 6)) (?v_260 (<= ?v_250 1)) (?v_267 (<= ?v_250 2))) (let ((?v_288 (not ?v_279)) (?v_322 (+ x_24 x_37)) (?v_299 (+ x_29 x_37)) (?v_325 (= x_38 0)) (?v_297 (= x_39 x_25)) (?v_323 (and (= x_40 x_26) (= x_41 x_27))) (?v_308 (or x_32 x_33)) (?v_306 (not x_32))) (let ((?v_307 (and ?v_306 x_33)) (?v_330 (not x_26)) (?v_324 (not x_27))) (let ((?v_319 (and ?v_330 ?v_324)) (?v_321 (= x_42 x_28)) (?v_302 (= x_43 0)) (?v_301 (not x_33))) (let ((?v_294 (and ?v_306 ?v_301)) (?v_317 (or x_32 ?v_301)) (?v_298 (= x_34 1))) (let ((?v_315 (not ?v_298)) (?v_332 (or x_26 x_27)) (?v_336 (or ?v_330 x_27)) (?v_295 (= x_34 0))) (let ((?v_310 (not ?v_295)) (?v_314 (or ?v_306 x_33)) (?v_335 (< x_24 1)) (?v_304 (= x_43 x_29)) (?v_303 (and x_32 ?v_301)) (?v_341 (or x_26 ?v_324)) (?v_326 (and x_26 ?v_324)) (?v_320 (= x_44 x_30)) (?v_296 (= x_45 x_31)) (?v_327 (= x_38 x_24)) (?v_340 (< x_24 6)) (?v_300 (and (= x_46 x_32) (= x_47 x_33))) (?v_331 (and ?v_330 x_27)) (?v_313 (< x_29 2)) (?v_328 (<= ?v_322 1)) (?v_329 (= x_38 ?v_322)) (?v_305 (= x_43 ?v_299)) (?v_318 (<= ?v_299 3)) (?v_342 (<= ?v_322 6)) (?v_309 (<= ?v_299 1)) (?v_316 (<= ?v_299 2))) (let ((?v_337 (not ?v_328)) (?v_371 (+ x_9 x_23)) (?v_348 (+ x_14 x_23)) (?v_374 (= x_24 0)) (?v_346 (= x_25 x_10)) (?v_372 (and (= x_26 x_11) (= x_27 x_12))) (?v_357 (or x_18 x_19)) (?v_355 (not x_18))) (let ((?v_356 (and ?v_355 x_19)) (?v_379 (not x_11)) (?v_373 (not x_12))) (let ((?v_368 (and ?v_379 ?v_373)) (?v_370 (= x_28 x_13)) (?v_351 (= x_29 0)) (?v_350 (not x_19))) (let ((?v_343 (and ?v_355 ?v_350)) (?v_366 (or x_18 ?v_350)) (?v_347 (= x_20 1))) (let ((?v_364 (not ?v_347)) (?v_381 (or x_11 x_12)) (?v_385 (or ?v_379 x_12)) (?v_344 (= x_20 0))) (let ((?v_359 (not ?v_344)) (?v_363 (or ?v_355 x_19)) (?v_384 (< x_9 1)) (?v_353 (= x_29 x_14)) (?v_352 (and x_18 ?v_350)) (?v_390 (or x_11 ?v_373)) (?v_375 (and x_11 ?v_373)) (?v_369 (= x_30 x_16)) (?v_345 (= x_31 x_17)) (?v_376 (= x_24 x_9)) (?v_389 (< x_9 6)) (?v_349 (and (= x_32 x_18) (= x_33 x_19))) (?v_380 (and ?v_379 x_12)) (?v_362 (< x_14 2)) (?v_377 (<= ?v_371 1)) (?v_378 (= x_24 ?v_371)) (?v_354 (= x_29 ?v_348)) (?v_367 (<= ?v_348 3)) (?v_391 (<= ?v_371 6)) (?v_358 (<= ?v_348 1)) (?v_365 (<= ?v_348 2))) (let ((?v_386 (not ?v_377)) (?v_397 (+ 0 x_8)) (?v_415 (= x_9 0)) (?v_396 (= x_10 x_3)) (?v_417 (and (= x_11 x_4) (= x_12 x_5))) (?v_404 (or x_0 x_1)) (?v_402 (not x_0))) (let ((?v_403 (and ?v_402 x_1)) (?v_421 (not x_4)) (?v_418 (not x_5))) (let ((?v_413 (and ?v_421 ?v_418)) (?v_416 (= x_13 x_7)) (?v_394 (= x_14 0)) (?v_399 (not x_1))) (let ((?v_392 (and ?v_402 ?v_399)) (?v_411 (or x_0 ?v_399)) (?v_393 (not x_15)) (?v_423 (or x_4 x_5)) (?v_428 (or ?v_421 x_5)) (?v_409 (or ?v_402 x_1)) (?v_427 (< 0 1)) (?v_400 (and x_0 ?v_399)) (?v_432 (or x_4 ?v_418)) (?v_419 (and x_4 ?v_418)) (?v_414 (= x_16 x_6)) (?v_395 (= x_17 x_2)) (?v_431 (< 0 6)) (?v_398 (and (= x_18 x_0) (= x_19 x_1))) (?v_422 (and ?v_421 x_5)) (?v_408 (< 0 2)) (?v_405 (<= ?v_397 1)) (?v_420 (= x_9 ?v_397)) (?v_401 (= x_14 ?v_397)) (?v_412 (<= ?v_397 3)) (?v_433 (<= ?v_397 6)) (?v_410 (<= ?v_397 2))) (let ((?v_424 (not ?v_405)) (?v_17 (= x_113 2)) (?v_18 (or ?v_20 ?v_16)) (?v_39 (= x_108 1)) (?v_44 (= x_108 6)) (?v_40 (or ?v_42 ?v_16)) (?v_45 (or ?v_47 ?v_16)) (?v_66 (= x_99 2)) (?v_67 (or ?v_69 ?v_65)) (?v_88 (= x_94 1)) (?v_93 (= x_94 6)) (?v_89 (or ?v_91 ?v_65)) (?v_94 (or ?v_96 ?v_65)) (?v_115 (= x_85 2)) (?v_116 (or ?v_118 ?v_114)) (?v_137 (= x_80 1)) (?v_142 (= x_80 6)) (?v_138 (or ?v_140 ?v_114)) (?v_143 (or ?v_145 ?v_114)) (?v_164 (= x_71 2)) (?v_165 (or ?v_167 ?v_163)) (?v_186 (= x_66 1)) (?v_191 (= x_66 6)) (?v_187 (or ?v_189 ?v_163)) (?v_192 (or ?v_194 ?v_163)) (?v_213 (= x_57 2)) (?v_214 (or ?v_216 ?v_212)) (?v_235 (= x_52 1)) (?v_240 (= x_52 6)) (?v_236 (or ?v_238 ?v_212)) (?v_241 (or ?v_243 ?v_212)) (?v_262 (= x_43 2)) (?v_263 (or ?v_265 ?v_261)) (?v_284 (= x_38 1)) (?v_289 (= x_38 6)) (?v_285 (or ?v_287 ?v_261)) (?v_290 (or ?v_292 ?v_261)) (?v_311 (= x_29 2)) (?v_312 (or ?v_314 ?v_310)) (?v_333 (= x_24 1)) (?v_338 (= x_24 6)) (?v_334 (or ?v_336 ?v_310)) (?v_339 (or ?v_341 ?v_310)) (?v_360 (= x_14 2)) (?v_361 (or ?v_363 ?v_359)) (?v_382 (= x_9 1)) (?v_387 (= x_9 6)) (?v_383 (or ?v_385 ?v_359)) (?v_388 (or ?v_390 ?v_359)) (?v_406 (= 0 2)) (?v_407 (or ?v_409 x_15)) (?v_425 (= 0 1)) (?v_429 (= 0 6)) (?v_426 (or ?v_428 x_15)) (?v_430 (or ?v_432 x_15))) (and (and (and (and (and (and (and (and (and (and (and (and (and (and (and (and (and (and (and (and (and (and (and (and (and (and (and (and (and (and (and (and (and (and (and (and (and (and (and (and (and (and (and (and (and (and (and (and (and (and (and (and (and (and (and (and (and (and (and (and (<= x_132 1) (>= x_132 0)) (<= x_118 1)) (>= x_118 0)) (<= x_104 1)) (>= x_104 0)) (<= x_90 1)) (>= x_90 0)) (<= x_76 1)) (>= x_76 0)) (<= x_62 1)) (>= x_62 0)) (<= x_48 1)) (>= x_48 0)) (<= x_34 1)) (>= x_34 0)) (<= x_20 1)) (>= x_20 0)) ?v_392) (not x_2)) (not x_3)) ?v_413) (not x_6)) (not x_7)) (not (< x_121 0))) (= x_132 (ite ?v_4 0 1))) (or (or (or (or (or (or (or (or (or (and (and (and (and (and (and (= x_133 0) ?v_0) ?v_1) ?v_6) ?v_2) ?v_10) ?v_3) (and (and (and (and (and (and (and (= x_133 1) ?v_0) ?v_1) x_130) (not x_131)) ?v_8) ?v_2) ?v_3)) (and (and (and (and (and (and (and (= x_133 2) ?v_0) ?v_4) ?v_15) ?v_11) ?v_2) ?v_6) ?v_3)) (and (and (and (and (and (and (and (and (= x_133 3) ?v_9) ?v_1) ?v_17) (not x_130)) x_131) ?v_8) ?v_2) ?v_3)) (and (and (and (and (and (and (and (= x_133 4) ?v_9) ?v_1) ?v_19) ?v_6) ?v_2) ?v_10) ?v_3)) (and (and (and (and (and (and (and (= x_133 5) ?v_9) ?v_4) ?v_22) ?v_11) ?v_2) ?v_6) ?v_3)) (and (and (and (and (and (and (and (= x_133 6) ?v_13) ?v_1) x_130) x_131) ?v_2) ?v_10) ?v_3)) (and (and (and (and (and (and (and (= x_133 7) ?v_13) ?v_4) ?v_24) ?v_11) ?v_2) ?v_6) ?v_3)) (and (and (and (and (and (and (= x_133 8) x_116) x_117) ?v_6) ?v_2) ?v_10) ?v_3)) (and (and (and (and (and (and (and (and (and (and (and (and (= x_133 9) (or ?v_14 ?v_16)) (or (or ?v_14 ?v_21) (not ?v_15))) (or ?v_18 (not ?v_17))) (or ?v_18 (not ?v_19))) (or (or ?v_20 ?v_21) (not ?v_22))) (or ?v_23 ?v_16)) (or (or ?v_23 ?v_21) (not ?v_24))) (or ?v_12 ?v_7)) ?v_10) ?v_2) ?v_6) ?v_3))) (or (or (or (or (or (or (or (or (or (or (and (and (and (and (and (and (and (= x_134 0) ?v_25) ?v_1) x_124) (not x_125)) ?v_31) ?v_26) ?v_27) (and (and (and (and (and (and (= x_134 1) ?v_25) ?v_1) ?v_29) ?v_26) ?v_33) ?v_27)) (and (and (and (and (and (and (and (= x_134 2) ?v_25) ?v_4) ?v_34) ?v_35) ?v_26) ?v_29) ?v_27)) (and (and (and (and (and (and (and (and (= x_134 3) ?v_32) ?v_1) ?v_39) (not x_124)) x_125) ?v_31) ?v_26) ?v_27)) (and (and (and (and (and (and (and (= x_134 4) ?v_32) ?v_1) ?v_41) ?v_29) ?v_26) ?v_33) ?v_27)) (and (and (and (and (and (and (and (= x_134 5) ?v_32) ?v_4) ?v_34) ?v_35) ?v_26) ?v_29) ?v_27)) (and (and (and (and (and (and (and (and (= x_134 6) ?v_37) ?v_1) ?v_44) x_124) x_125) ?v_31) ?v_26) ?v_27)) (and (and (and (and (and (and (and (= x_134 7) ?v_37) ?v_1) ?v_46) ?v_29) ?v_26) ?v_33) ?v_27)) (and (and (and (and (and (and (and (= x_134 8) ?v_37) ?v_4) ?v_48) ?v_35) ?v_26) ?v_29) ?v_27)) (and (and (and (and (and (and (= x_134 9) x_110) x_111) ?v_29) ?v_26) ?v_33) ?v_27)) (and (and (and (and (and (and (and (and (and (and (and (and (and (= x_134 10) (or ?v_38 ?v_16)) (or (or ?v_38 ?v_21) ?v_43)) (or ?v_40 (not ?v_39))) (or ?v_40 (not ?v_41))) (or (or ?v_42 ?v_21) ?v_43)) (or ?v_45 (not ?v_44))) (or ?v_45 (not ?v_46))) (or (or ?v_47 ?v_21) (not ?v_48))) (or ?v_36 ?v_30)) ?v_33) ?v_26) ?v_29) ?v_27))) (not (< x_107 0))) (= x_118 (ite ?v_53 0 1))) (or (or (or (or (or (or (or (or (or (and (and (and (and (and (and (= x_119 0) ?v_49) ?v_50) ?v_55) ?v_51) ?v_59) ?v_52) (and (and (and (and (and (and (and (= x_119 1) ?v_49) ?v_50) x_116) ?v_7) ?v_57) ?v_51) ?v_52)) (and (and (and (and (and (and (and (= x_119 2) ?v_49) ?v_53) ?v_64) ?v_60) ?v_51) ?v_55) ?v_52)) (and (and (and (and (and (and (and (and (= x_119 3) ?v_58) ?v_50) ?v_66) ?v_12) x_117) ?v_57) ?v_51) ?v_52)) (and (and (and (and (and (and (and (= x_119 4) ?v_58) ?v_50) ?v_68) ?v_55) ?v_51) ?v_59) ?v_52)) (and (and (and (and (and (and (and (= x_119 5) ?v_58) ?v_53) ?v_71) ?v_60) ?v_51) ?v_55) ?v_52)) (and (and (and (and (and (and (and (= x_119 6) ?v_62) ?v_50) x_116) x_117) ?v_51) ?v_59) ?v_52)) (and (and (and (and (and (and (and (= x_119 7) ?v_62) ?v_53) ?v_73) ?v_60) ?v_51) ?v_55) ?v_52)) (and (and (and (and (and (and (= x_119 8) x_102) x_103) ?v_55) ?v_51) ?v_59) ?v_52)) (and (and (and (and (and (and (and (and (and (and (and (and (= x_119 9) (or ?v_63 ?v_65)) (or (or ?v_63 ?v_70) (not ?v_64))) (or ?v_67 (not ?v_66))) (or ?v_67 (not ?v_68))) (or (or ?v_69 ?v_70) (not ?v_71))) (or ?v_72 ?v_65)) (or (or ?v_72 ?v_70) (not ?v_73))) (or ?v_61 ?v_56)) ?v_59) ?v_51) ?v_55) ?v_52))) (or (or (or (or (or (or (or (or (or (or (and (and (and (and (and (and (and (= x_120 0) ?v_74) ?v_50) x_110) ?v_30) ?v_80) ?v_75) ?v_76) (and (and (and (and (and (and (= x_120 1) ?v_74) ?v_50) ?v_78) ?v_75) ?v_82) ?v_76)) (and (and (and (and (and (and (and (= x_120 2) ?v_74) ?v_53) ?v_83) ?v_84) ?v_75) ?v_78) ?v_76)) (and (and (and (and (and (and (and (and (= x_120 3) ?v_81) ?v_50) ?v_88) ?v_36) x_111) ?v_80) ?v_75) ?v_76)) (and (and (and (and (and (and (and (= x_120 4) ?v_81) ?v_50) ?v_90) ?v_78) ?v_75) ?v_82) ?v_76)) (and (and (and (and (and (and (and (= x_120 5) ?v_81) ?v_53) ?v_83) ?v_84) ?v_75) ?v_78) ?v_76)) (and (and (and (and (and (and (and (and (= x_120 6) ?v_86) ?v_50) ?v_93) x_110) x_111) ?v_80) ?v_75) ?v_76)) (and (and (and (and (and (and (and (= x_120 7) ?v_86) ?v_50) ?v_95) ?v_78) ?v_75) ?v_82) ?v_76)) (and (and (and (and (and (and (and (= x_120 8) ?v_86) ?v_53) ?v_97) ?v_84) ?v_75) ?v_78) ?v_76)) (and (and (and (and (and (and (= x_120 9) x_96) x_97) ?v_78) ?v_75) ?v_82) ?v_76)) (and (and (and (and (and (and (and (and (and (and (and (and (and (= x_120 10) (or ?v_87 ?v_65)) (or (or ?v_87 ?v_70) ?v_92)) (or ?v_89 (not ?v_88))) (or ?v_89 (not ?v_90))) (or (or ?v_91 ?v_70) ?v_92)) (or ?v_94 (not ?v_93))) (or ?v_94 (not ?v_95))) (or (or ?v_96 ?v_70) (not ?v_97))) (or ?v_85 ?v_79)) ?v_82) ?v_75) ?v_78) ?v_76))) (not (< x_93 0))) (= x_104 (ite ?v_102 0 1))) (or (or (or (or (or (or (or (or (or (and (and (and (and (and (and (= x_105 0) ?v_98) ?v_99) ?v_104) ?v_100) ?v_108) ?v_101) (and (and (and (and (and (and (and (= x_105 1) ?v_98) ?v_99) x_102) ?v_56) ?v_106) ?v_100) ?v_101)) (and (and (and (and (and (and (and (= x_105 2) ?v_98) ?v_102) ?v_113) ?v_109) ?v_100) ?v_104) ?v_101)) (and (and (and (and (and (and (and (and (= x_105 3) ?v_107) ?v_99) ?v_115) ?v_61) x_103) ?v_106) ?v_100) ?v_101)) (and (and (and (and (and (and (and (= x_105 4) ?v_107) ?v_99) ?v_117) ?v_104) ?v_100) ?v_108) ?v_101)) (and (and (and (and (and (and (and (= x_105 5) ?v_107) ?v_102) ?v_120) ?v_109) ?v_100) ?v_104) ?v_101)) (and (and (and (and (and (and (and (= x_105 6) ?v_111) ?v_99) x_102) x_103) ?v_100) ?v_108) ?v_101)) (and (and (and (and (and (and (and (= x_105 7) ?v_111) ?v_102) ?v_122) ?v_109) ?v_100) ?v_104) ?v_101)) (and (and (and (and (and (and (= x_105 8) x_88) x_89) ?v_104) ?v_100) ?v_108) ?v_101)) (and (and (and (and (and (and (and (and (and (and (and (and (= x_105 9) (or ?v_112 ?v_114)) (or (or ?v_112 ?v_119) (not ?v_113))) (or ?v_116 (not ?v_115))) (or ?v_116 (not ?v_117))) (or (or ?v_118 ?v_119) (not ?v_120))) (or ?v_121 ?v_114)) (or (or ?v_121 ?v_119) (not ?v_122))) (or ?v_110 ?v_105)) ?v_108) ?v_100) ?v_104) ?v_101))) (or (or (or (or (or (or (or (or (or (or (and (and (and (and (and (and (and (= x_106 0) ?v_123) ?v_99) x_96) ?v_79) ?v_129) ?v_124) ?v_125) (and (and (and (and (and (and (= x_106 1) ?v_123) ?v_99) ?v_127) ?v_124) ?v_131) ?v_125)) (and (and (and (and (and (and (and (= x_106 2) ?v_123) ?v_102) ?v_132) ?v_133) ?v_124) ?v_127) ?v_125)) (and (and (and (and (and (and (and (and (= x_106 3) ?v_130) ?v_99) ?v_137) ?v_85) x_97) ?v_129) ?v_124) ?v_125)) (and (and (and (and (and (and (and (= x_106 4) ?v_130) ?v_99) ?v_139) ?v_127) ?v_124) ?v_131) ?v_125)) (and (and (and (and (and (and (and (= x_106 5) ?v_130) ?v_102) ?v_132) ?v_133) ?v_124) ?v_127) ?v_125)) (and (and (and (and (and (and (and (and (= x_106 6) ?v_135) ?v_99) ?v_142) x_96) x_97) ?v_129) ?v_124) ?v_125)) (and (and (and (and (and (and (and (= x_106 7) ?v_135) ?v_99) ?v_144) ?v_127) ?v_124) ?v_131) ?v_125)) (and (and (and (and (and (and (and (= x_106 8) ?v_135) ?v_102) ?v_146) ?v_133) ?v_124) ?v_127) ?v_125)) (and (and (and (and (and (and (= x_106 9) x_82) x_83) ?v_127) ?v_124) ?v_131) ?v_125)) (and (and (and (and (and (and (and (and (and (and (and (and (and (= x_106 10) (or ?v_136 ?v_114)) (or (or ?v_136 ?v_119) ?v_141)) (or ?v_138 (not ?v_137))) (or ?v_138 (not ?v_139))) (or (or ?v_140 ?v_119) ?v_141)) (or ?v_143 (not ?v_142))) (or ?v_143 (not ?v_144))) (or (or ?v_145 ?v_119) (not ?v_146))) (or ?v_134 ?v_128)) ?v_131) ?v_124) ?v_127) ?v_125))) (not (< x_79 0))) (= x_90 (ite ?v_151 0 1))) (or (or (or (or (or (or (or (or (or (and (and (and (and (and (and (= x_91 0) ?v_147) ?v_148) ?v_153) ?v_149) ?v_157) ?v_150) (and (and (and (and (and (and (and (= x_91 1) ?v_147) ?v_148) x_88) ?v_105) ?v_155) ?v_149) ?v_150)) (and (and (and (and (and (and (and (= x_91 2) ?v_147) ?v_151) ?v_162) ?v_158) ?v_149) ?v_153) ?v_150)) (and (and (and (and (and (and (and (and (= x_91 3) ?v_156) ?v_148) ?v_164) ?v_110) x_89) ?v_155) ?v_149) ?v_150)) (and (and (and (and (and (and (and (= x_91 4) ?v_156) ?v_148) ?v_166) ?v_153) ?v_149) ?v_157) ?v_150)) (and (and (and (and (and (and (and (= x_91 5) ?v_156) ?v_151) ?v_169) ?v_158) ?v_149) ?v_153) ?v_150)) (and (and (and (and (and (and (and (= x_91 6) ?v_160) ?v_148) x_88) x_89) ?v_149) ?v_157) ?v_150)) (and (and (and (and (and (and (and (= x_91 7) ?v_160) ?v_151) ?v_171) ?v_158) ?v_149) ?v_153) ?v_150)) (and (and (and (and (and (and (= x_91 8) x_74) x_75) ?v_153) ?v_149) ?v_157) ?v_150)) (and (and (and (and (and (and (and (and (and (and (and (and (= x_91 9) (or ?v_161 ?v_163)) (or (or ?v_161 ?v_168) (not ?v_162))) (or ?v_165 (not ?v_164))) (or ?v_165 (not ?v_166))) (or (or ?v_167 ?v_168) (not ?v_169))) (or ?v_170 ?v_163)) (or (or ?v_170 ?v_168) (not ?v_171))) (or ?v_159 ?v_154)) ?v_157) ?v_149) ?v_153) ?v_150))) (or (or (or (or (or (or (or (or (or (or (and (and (and (and (and (and (and (= x_92 0) ?v_172) ?v_148) x_82) ?v_128) ?v_178) ?v_173) ?v_174) (and (and (and (and (and (and (= x_92 1) ?v_172) ?v_148) ?v_176) ?v_173) ?v_180) ?v_174)) (and (and (and (and (and (and (and (= x_92 2) ?v_172) ?v_151) ?v_181) ?v_182) ?v_173) ?v_176) ?v_174)) (and (and (and (and (and (and (and (and (= x_92 3) ?v_179) ?v_148) ?v_186) ?v_134) x_83) ?v_178) ?v_173) ?v_174)) (and (and (and (and (and (and (and (= x_92 4) ?v_179) ?v_148) ?v_188) ?v_176) ?v_173) ?v_180) ?v_174)) (and (and (and (and (and (and (and (= x_92 5) ?v_179) ?v_151) ?v_181) ?v_182) ?v_173) ?v_176) ?v_174)) (and (and (and (and (and (and (and (and (= x_92 6) ?v_184) ?v_148) ?v_191) x_82) x_83) ?v_178) ?v_173) ?v_174)) (and (and (and (and (and (and (and (= x_92 7) ?v_184) ?v_148) ?v_193) ?v_176) ?v_173) ?v_180) ?v_174)) (and (and (and (and (and (and (and (= x_92 8) ?v_184) ?v_151) ?v_195) ?v_182) ?v_173) ?v_176) ?v_174)) (and (and (and (and (and (and (= x_92 9) x_68) x_69) ?v_176) ?v_173) ?v_180) ?v_174)) (and (and (and (and (and (and (and (and (and (and (and (and (and (= x_92 10) (or ?v_185 ?v_163)) (or (or ?v_185 ?v_168) ?v_190)) (or ?v_187 (not ?v_186))) (or ?v_187 (not ?v_188))) (or (or ?v_189 ?v_168) ?v_190)) (or ?v_192 (not ?v_191))) (or ?v_192 (not ?v_193))) (or (or ?v_194 ?v_168) (not ?v_195))) (or ?v_183 ?v_177)) ?v_180) ?v_173) ?v_176) ?v_174))) (not (< x_65 0))) (= x_76 (ite ?v_200 0 1))) (or (or (or (or (or (or (or (or (or (and (and (and (and (and (and (= x_77 0) ?v_196) ?v_197) ?v_202) ?v_198) ?v_206) ?v_199) (and (and (and (and (and (and (and (= x_77 1) ?v_196) ?v_197) x_74) ?v_154) ?v_204) ?v_198) ?v_199)) (and (and (and (and (and (and (and (= x_77 2) ?v_196) ?v_200) ?v_211) ?v_207) ?v_198) ?v_202) ?v_199)) (and (and (and (and (and (and (and (and (= x_77 3) ?v_205) ?v_197) ?v_213) ?v_159) x_75) ?v_204) ?v_198) ?v_199)) (and (and (and (and (and (and (and (= x_77 4) ?v_205) ?v_197) ?v_215) ?v_202) ?v_198) ?v_206) ?v_199)) (and (and (and (and (and (and (and (= x_77 5) ?v_205) ?v_200) ?v_218) ?v_207) ?v_198) ?v_202) ?v_199)) (and (and (and (and (and (and (and (= x_77 6) ?v_209) ?v_197) x_74) x_75) ?v_198) ?v_206) ?v_199)) (and (and (and (and (and (and (and (= x_77 7) ?v_209) ?v_200) ?v_220) ?v_207) ?v_198) ?v_202) ?v_199)) (and (and (and (and (and (and (= x_77 8) x_60) x_61) ?v_202) ?v_198) ?v_206) ?v_199)) (and (and (and (and (and (and (and (and (and (and (and (and (= x_77 9) (or ?v_210 ?v_212)) (or (or ?v_210 ?v_217) (not ?v_211))) (or ?v_214 (not ?v_213))) (or ?v_214 (not ?v_215))) (or (or ?v_216 ?v_217) (not ?v_218))) (or ?v_219 ?v_212)) (or (or ?v_219 ?v_217) (not ?v_220))) (or ?v_208 ?v_203)) ?v_206) ?v_198) ?v_202) ?v_199))) (or (or (or (or (or (or (or (or (or (or (and (and (and (and (and (and (and (= x_78 0) ?v_221) ?v_197) x_68) ?v_177) ?v_227) ?v_222) ?v_223) (and (and (and (and (and (and (= x_78 1) ?v_221) ?v_197) ?v_225) ?v_222) ?v_229) ?v_223)) (and (and (and (and (and (and (and (= x_78 2) ?v_221) ?v_200) ?v_230) ?v_231) ?v_222) ?v_225) ?v_223)) (and (and (and (and (and (and (and (and (= x_78 3) ?v_228) ?v_197) ?v_235) ?v_183) x_69) ?v_227) ?v_222) ?v_223)) (and (and (and (and (and (and (and (= x_78 4) ?v_228) ?v_197) ?v_237) ?v_225) ?v_222) ?v_229) ?v_223)) (and (and (and (and (and (and (and (= x_78 5) ?v_228) ?v_200) ?v_230) ?v_231) ?v_222) ?v_225) ?v_223)) (and (and (and (and (and (and (and (and (= x_78 6) ?v_233) ?v_197) ?v_240) x_68) x_69) ?v_227) ?v_222) ?v_223)) (and (and (and (and (and (and (and (= x_78 7) ?v_233) ?v_197) ?v_242) ?v_225) ?v_222) ?v_229) ?v_223)) (and (and (and (and (and (and (and (= x_78 8) ?v_233) ?v_200) ?v_244) ?v_231) ?v_222) ?v_225) ?v_223)) (and (and (and (and (and (and (= x_78 9) x_54) x_55) ?v_225) ?v_222) ?v_229) ?v_223)) (and (and (and (and (and (and (and (and (and (and (and (and (and (= x_78 10) (or ?v_234 ?v_212)) (or (or ?v_234 ?v_217) ?v_239)) (or ?v_236 (not ?v_235))) (or ?v_236 (not ?v_237))) (or (or ?v_238 ?v_217) ?v_239)) (or ?v_241 (not ?v_240))) (or ?v_241 (not ?v_242))) (or (or ?v_243 ?v_217) (not ?v_244))) (or ?v_232 ?v_226)) ?v_229) ?v_222) ?v_225) ?v_223))) (not (< x_51 0))) (= x_62 (ite ?v_249 0 1))) (or (or (or (or (or (or (or (or (or (and (and (and (and (and (and (= x_63 0) ?v_245) ?v_246) ?v_251) ?v_247) ?v_255) ?v_248) (and (and (and (and (and (and (and (= x_63 1) ?v_245) ?v_246) x_60) ?v_203) ?v_253) ?v_247) ?v_248)) (and (and (and (and (and (and (and (= x_63 2) ?v_245) ?v_249) ?v_260) ?v_256) ?v_247) ?v_251) ?v_248)) (and (and (and (and (and (and (and (and (= x_63 3) ?v_254) ?v_246) ?v_262) ?v_208) x_61) ?v_253) ?v_247) ?v_248)) (and (and (and (and (and (and (and (= x_63 4) ?v_254) ?v_246) ?v_264) ?v_251) ?v_247) ?v_255) ?v_248)) (and (and (and (and (and (and (and (= x_63 5) ?v_254) ?v_249) ?v_267) ?v_256) ?v_247) ?v_251) ?v_248)) (and (and (and (and (and (and (and (= x_63 6) ?v_258) ?v_246) x_60) x_61) ?v_247) ?v_255) ?v_248)) (and (and (and (and (and (and (and (= x_63 7) ?v_258) ?v_249) ?v_269) ?v_256) ?v_247) ?v_251) ?v_248)) (and (and (and (and (and (and (= x_63 8) x_46) x_47) ?v_251) ?v_247) ?v_255) ?v_248)) (and (and (and (and (and (and (and (and (and (and (and (and (= x_63 9) (or ?v_259 ?v_261)) (or (or ?v_259 ?v_266) (not ?v_260))) (or ?v_263 (not ?v_262))) (or ?v_263 (not ?v_264))) (or (or ?v_265 ?v_266) (not ?v_267))) (or ?v_268 ?v_261)) (or (or ?v_268 ?v_266) (not ?v_269))) (or ?v_257 ?v_252)) ?v_255) ?v_247) ?v_251) ?v_248))) (or (or (or (or (or (or (or (or (or (or (and (and (and (and (and (and (and (= x_64 0) ?v_270) ?v_246) x_54) ?v_226) ?v_276) ?v_271) ?v_272) (and (and (and (and (and (and (= x_64 1) ?v_270) ?v_246) ?v_274) ?v_271) ?v_278) ?v_272)) (and (and (and (and (and (and (and (= x_64 2) ?v_270) ?v_249) ?v_279) ?v_280) ?v_271) ?v_274) ?v_272)) (and (and (and (and (and (and (and (and (= x_64 3) ?v_277) ?v_246) ?v_284) ?v_232) x_55) ?v_276) ?v_271) ?v_272)) (and (and (and (and (and (and (and (= x_64 4) ?v_277) ?v_246) ?v_286) ?v_274) ?v_271) ?v_278) ?v_272)) (and (and (and (and (and (and (and (= x_64 5) ?v_277) ?v_249) ?v_279) ?v_280) ?v_271) ?v_274) ?v_272)) (and (and (and (and (and (and (and (and (= x_64 6) ?v_282) ?v_246) ?v_289) x_54) x_55) ?v_276) ?v_271) ?v_272)) (and (and (and (and (and (and (and (= x_64 7) ?v_282) ?v_246) ?v_291) ?v_274) ?v_271) ?v_278) ?v_272)) (and (and (and (and (and (and (and (= x_64 8) ?v_282) ?v_249) ?v_293) ?v_280) ?v_271) ?v_274) ?v_272)) (and (and (and (and (and (and (= x_64 9) x_40) x_41) ?v_274) ?v_271) ?v_278) ?v_272)) (and (and (and (and (and (and (and (and (and (and (and (and (and (= x_64 10) (or ?v_283 ?v_261)) (or (or ?v_283 ?v_266) ?v_288)) (or ?v_285 (not ?v_284))) (or ?v_285 (not ?v_286))) (or (or ?v_287 ?v_266) ?v_288)) (or ?v_290 (not ?v_289))) (or ?v_290 (not ?v_291))) (or (or ?v_292 ?v_266) (not ?v_293))) (or ?v_281 ?v_275)) ?v_278) ?v_271) ?v_274) ?v_272))) (not (< x_37 0))) (= x_48 (ite ?v_298 0 1))) (or (or (or (or (or (or (or (or (or (and (and (and (and (and (and (= x_49 0) ?v_294) ?v_295) ?v_300) ?v_296) ?v_304) ?v_297) (and (and (and (and (and (and (and (= x_49 1) ?v_294) ?v_295) x_46) ?v_252) ?v_302) ?v_296) ?v_297)) (and (and (and (and (and (and (and (= x_49 2) ?v_294) ?v_298) ?v_309) ?v_305) ?v_296) ?v_300) ?v_297)) (and (and (and (and (and (and (and (and (= x_49 3) ?v_303) ?v_295) ?v_311) ?v_257) x_47) ?v_302) ?v_296) ?v_297)) (and (and (and (and (and (and (and (= x_49 4) ?v_303) ?v_295) ?v_313) ?v_300) ?v_296) ?v_304) ?v_297)) (and (and (and (and (and (and (and (= x_49 5) ?v_303) ?v_298) ?v_316) ?v_305) ?v_296) ?v_300) ?v_297)) (and (and (and (and (and (and (and (= x_49 6) ?v_307) ?v_295) x_46) x_47) ?v_296) ?v_304) ?v_297)) (and (and (and (and (and (and (and (= x_49 7) ?v_307) ?v_298) ?v_318) ?v_305) ?v_296) ?v_300) ?v_297)) (and (and (and (and (and (and (= x_49 8) x_32) x_33) ?v_300) ?v_296) ?v_304) ?v_297)) (and (and (and (and (and (and (and (and (and (and (and (and (= x_49 9) (or ?v_308 ?v_310)) (or (or ?v_308 ?v_315) (not ?v_309))) (or ?v_312 (not ?v_311))) (or ?v_312 (not ?v_313))) (or (or ?v_314 ?v_315) (not ?v_316))) (or ?v_317 ?v_310)) (or (or ?v_317 ?v_315) (not ?v_318))) (or ?v_306 ?v_301)) ?v_304) ?v_296) ?v_300) ?v_297))) (or (or (or (or (or (or (or (or (or (or (and (and (and (and (and (and (and (= x_50 0) ?v_319) ?v_295) x_40) ?v_275) ?v_325) ?v_320) ?v_321) (and (and (and (and (and (and (= x_50 1) ?v_319) ?v_295) ?v_323) ?v_320) ?v_327) ?v_321)) (and (and (and (and (and (and (and (= x_50 2) ?v_319) ?v_298) ?v_328) ?v_329) ?v_320) ?v_323) ?v_321)) (and (and (and (and (and (and (and (and (= x_50 3) ?v_326) ?v_295) ?v_333) ?v_281) x_41) ?v_325) ?v_320) ?v_321)) (and (and (and (and (and (and (and (= x_50 4) ?v_326) ?v_295) ?v_335) ?v_323) ?v_320) ?v_327) ?v_321)) (and (and (and (and (and (and (and (= x_50 5) ?v_326) ?v_298) ?v_328) ?v_329) ?v_320) ?v_323) ?v_321)) (and (and (and (and (and (and (and (and (= x_50 6) ?v_331) ?v_295) ?v_338) x_40) x_41) ?v_325) ?v_320) ?v_321)) (and (and (and (and (and (and (and (= x_50 7) ?v_331) ?v_295) ?v_340) ?v_323) ?v_320) ?v_327) ?v_321)) (and (and (and (and (and (and (and (= x_50 8) ?v_331) ?v_298) ?v_342) ?v_329) ?v_320) ?v_323) ?v_321)) (and (and (and (and (and (and (= x_50 9) x_26) x_27) ?v_323) ?v_320) ?v_327) ?v_321)) (and (and (and (and (and (and (and (and (and (and (and (and (and (= x_50 10) (or ?v_332 ?v_310)) (or (or ?v_332 ?v_315) ?v_337)) (or ?v_334 (not ?v_333))) (or ?v_334 (not ?v_335))) (or (or ?v_336 ?v_315) ?v_337)) (or ?v_339 (not ?v_338))) (or ?v_339 (not ?v_340))) (or (or ?v_341 ?v_315) (not ?v_342))) (or ?v_330 ?v_324)) ?v_327) ?v_320) ?v_323) ?v_321))) (not (< x_23 0))) (= x_34 (ite ?v_347 0 1))) (or (or (or (or (or (or (or (or (or (and (and (and (and (and (and (= x_35 0) ?v_343) ?v_344) ?v_349) ?v_345) ?v_353) ?v_346) (and (and (and (and (and (and (and (= x_35 1) ?v_343) ?v_344) x_32) ?v_301) ?v_351) ?v_345) ?v_346)) (and (and (and (and (and (and (and (= x_35 2) ?v_343) ?v_347) ?v_358) ?v_354) ?v_345) ?v_349) ?v_346)) (and (and (and (and (and (and (and (and (= x_35 3) ?v_352) ?v_344) ?v_360) ?v_306) x_33) ?v_351) ?v_345) ?v_346)) (and (and (and (and (and (and (and (= x_35 4) ?v_352) ?v_344) ?v_362) ?v_349) ?v_345) ?v_353) ?v_346)) (and (and (and (and (and (and (and (= x_35 5) ?v_352) ?v_347) ?v_365) ?v_354) ?v_345) ?v_349) ?v_346)) (and (and (and (and (and (and (and (= x_35 6) ?v_356) ?v_344) x_32) x_33) ?v_345) ?v_353) ?v_346)) (and (and (and (and (and (and (and (= x_35 7) ?v_356) ?v_347) ?v_367) ?v_354) ?v_345) ?v_349) ?v_346)) (and (and (and (and (and (and (= x_35 8) x_18) x_19) ?v_349) ?v_345) ?v_353) ?v_346)) (and (and (and (and (and (and (and (and (and (and (and (and (= x_35 9) (or ?v_357 ?v_359)) (or (or ?v_357 ?v_364) (not ?v_358))) (or ?v_361 (not ?v_360))) (or ?v_361 (not ?v_362))) (or (or ?v_363 ?v_364) (not ?v_365))) (or ?v_366 ?v_359)) (or (or ?v_366 ?v_364) (not ?v_367))) (or ?v_355 ?v_350)) ?v_353) ?v_345) ?v_349) ?v_346))) (or (or (or (or (or (or (or (or (or (or (and (and (and (and (and (and (and (= x_36 0) ?v_368) ?v_344) x_26) ?v_324) ?v_374) ?v_369) ?v_370) (and (and (and (and (and (and (= x_36 1) ?v_368) ?v_344) ?v_372) ?v_369) ?v_376) ?v_370)) (and (and (and (and (and (and (and (= x_36 2) ?v_368) ?v_347) ?v_377) ?v_378) ?v_369) ?v_372) ?v_370)) (and (and (and (and (and (and (and (and (= x_36 3) ?v_375) ?v_344) ?v_382) ?v_330) x_27) ?v_374) ?v_369) ?v_370)) (and (and (and (and (and (and (and (= x_36 4) ?v_375) ?v_344) ?v_384) ?v_372) ?v_369) ?v_376) ?v_370)) (and (and (and (and (and (and (and (= x_36 5) ?v_375) ?v_347) ?v_377) ?v_378) ?v_369) ?v_372) ?v_370)) (and (and (and (and (and (and (and (and (= x_36 6) ?v_380) ?v_344) ?v_387) x_26) x_27) ?v_374) ?v_369) ?v_370)) (and (and (and (and (and (and (and (= x_36 7) ?v_380) ?v_344) ?v_389) ?v_372) ?v_369) ?v_376) ?v_370)) (and (and (and (and (and (and (and (= x_36 8) ?v_380) ?v_347) ?v_391) ?v_378) ?v_369) ?v_372) ?v_370)) (and (and (and (and (and (and (= x_36 9) x_11) x_12) ?v_372) ?v_369) ?v_376) ?v_370)) (and (and (and (and (and (and (and (and (and (and (and (and (and (= x_36 10) (or ?v_381 ?v_359)) (or (or ?v_381 ?v_364) ?v_386)) (or ?v_383 (not ?v_382))) (or ?v_383 (not ?v_384))) (or (or ?v_385 ?v_364) ?v_386)) (or ?v_388 (not ?v_387))) (or ?v_388 (not ?v_389))) (or (or ?v_390 ?v_364) (not ?v_391))) (or ?v_379 ?v_373)) ?v_376) ?v_369) ?v_372) ?v_370))) (not (< x_8 0))) (= x_20 (ite x_15 0 1))) (or (or (or (or (or (or (or (or (or (and (and (and (and (and (and (= x_21 0) ?v_392) ?v_393) ?v_398) ?v_395) ?v_394) ?v_396) (and (and (and (and (and (and (and (= x_21 1) ?v_392) ?v_393) x_18) ?v_350) ?v_394) ?v_395) ?v_396)) (and (and (and (and (and (and (and (= x_21 2) ?v_392) x_15) ?v_405) ?v_401) ?v_395) ?v_398) ?v_396)) (and (and (and (and (and (and (and (and (= x_21 3) ?v_400) ?v_393) ?v_406) ?v_355) x_19) ?v_394) ?v_395) ?v_396)) (and (and (and (and (and (and (and (= x_21 4) ?v_400) ?v_393) ?v_408) ?v_398) ?v_395) ?v_394) ?v_396)) (and (and (and (and (and (and (and (= x_21 5) ?v_400) x_15) ?v_410) ?v_401) ?v_395) ?v_398) ?v_396)) (and (and (and (and (and (and (and (= x_21 6) ?v_403) ?v_393) x_18) x_19) ?v_395) ?v_394) ?v_396)) (and (and (and (and (and (and (and (= x_21 7) ?v_403) x_15) ?v_412) ?v_401) ?v_395) ?v_398) ?v_396)) (and (and (and (and (and (and (= x_21 8) x_0) x_1) ?v_398) ?v_395) ?v_394) ?v_396)) (and (and (and (and (and (and (and (and (and (and (and (and (= x_21 9) (or ?v_404 x_15)) (or (or ?v_404 ?v_393) ?v_424)) (or ?v_407 (not ?v_406))) (or ?v_407 (not ?v_408))) (or (or ?v_409 ?v_393) (not ?v_410))) (or ?v_411 x_15)) (or (or ?v_411 ?v_393) (not ?v_412))) (or ?v_402 ?v_399)) ?v_394) ?v_395) ?v_398) ?v_396))) (or (or (or (or (or (or (or (or (or (or (and (and (and (and (and (and (and (= x_22 0) ?v_413) ?v_393) x_11) ?v_373) ?v_415) ?v_414) ?v_416) (and (and (and (and (and (and (= x_22 1) ?v_413) ?v_393) ?v_417) ?v_414) ?v_415) ?v_416)) (and (and (and (and (and (and (and (= x_22 2) ?v_413) x_15) ?v_405) ?v_420) ?v_414) ?v_417) ?v_416)) (and (and (and (and (and (and (and (and (= x_22 3) ?v_419) ?v_393) ?v_425) ?v_379) x_12) ?v_415) ?v_414) ?v_416)) (and (and (and (and (and (and (and (= x_22 4) ?v_419) ?v_393) ?v_427) ?v_417) ?v_414) ?v_415) ?v_416)) (and (and (and (and (and (and (and (= x_22 5) ?v_419) x_15) ?v_405) ?v_420) ?v_414) ?v_417) ?v_416)) (and (and (and (and (and (and (and (and (= x_22 6) ?v_422) ?v_393) ?v_429) x_11) x_12) ?v_415) ?v_414) ?v_416)) (and (and (and (and (and (and (and (= x_22 7) ?v_422) ?v_393) ?v_431) ?v_417) ?v_414) ?v_415) ?v_416)) (and (and (and (and (and (and (and (= x_22 8) ?v_422) x_15) ?v_433) ?v_420) ?v_414) ?v_417) ?v_416)) (and (and (and (and (and (and (= x_22 9) x_4) x_5) ?v_417) ?v_414) ?v_415) ?v_416)) (and (and (and (and (and (and (and (and (and (and (and (and (and (= x_22 10) (or ?v_423 x_15)) (or (or ?v_423 ?v_393) ?v_424)) (or ?v_426 (not ?v_425))) (or ?v_426 (not ?v_427))) (or (or ?v_428 ?v_393) ?v_424)) (or ?v_430 (not ?v_429))) (or ?v_430 (not ?v_431))) (or (or ?v_432 ?v_393) (not ?v_433))) (or ?v_421 ?v_418)) ?v_415) ?v_414) ?v_417) ?v_416))) (or (or (or (or (or (or (or (or (or x_129 x_115) x_101) x_87) x_73) x_59) x_45) x_31) x_17) x_2))))))))))))))))))))))))))))))))))))))))))))))))))))))))
(check-sat)
(exit)
